EVRP-TW-SPD dataset generation/evrptwspd_instances/small_instances/Cplex15er/r102C15.txt
StringID	Type	x	y	Delivery	Pickup	ReadyTime	DueDate	ServiceTime
D0	d	35.0	35.0	0.0	0.0	0.0	230.0	0.0
S0	f	35.0	35.0	0.0	0.0	0.0	230.0	0.0
S1	f	64.0	37.0	0.0	0.0	0.0	230.0	0.0
S5	f	28.0	62.0	0.0	0.0	0.0	230.0	0.0
S7	f	20.0	61.0	0.0	0.0	0.0	230.0	0.0
S9	f	15.0	42.0	0.0	0.0	0.0	230.0	0.0
S11	f	11.0	18.0	0.0	0.0	0.0	230.0	0.0
S12	f	-2.0	25.0	0.0	0.0	0.0	230.0	0.0
S14	f	25.0	4.0	0.0	0.0	0.0	230.0	0.0
C38	c	5.0	5.0	16.0	0.0	113.0	123.0	10.0
C11	c	20.0	65.0	3.6923076923076925	8.307692307692307	55.0	65.0	10.0
C45	c	6.0	38.0	2.526315789473684	13.473684210526315	125.0	135.0	10.0
C2	c	35.0	17.0	3.4	3.6	0.0	202.0	10.0
C7	c	20.0	50.0	2.0	3.0	88.0	98.0	10.0
C59	c	21.0	24.0	24.5	3.5	101.0	111.0	10.0
C75	c	49.0	11.0	4.040816326530612	13.959183673469388	0.0	192.0	10.0
C48	c	13.0	52.0	9.0	27.0	147.0	157.0	10.0
C17	c	5.0	30.0	0.3333333333333333	1.6666666666666667	87.0	97.0	10.0
C1	c	41.0	49.0	8.36734693877551	1.6326530612244898	36.0	46.0	10.0
C70	c	37.0	56.0	3.3035714285714284	1.6964285714285716	49.0	59.0	10.0
C91	c	15.0	19.0	0.7894736842105263	0.21052631578947367	87.0	97.0	10.0
C52	c	27.0	43.0	5.651162790697675	3.3488372093023253	111.0	121.0	10.0
C95	c	25.0	24.0	19.2	0.8000000000000007	140.0	150.0	10.0
C80	c	56.0	37.0	3.9642857142857144	2.0357142857142856	108.0	118.0	10.0

Q Vehicle fuel tank capacity /60.63/
C Vehicle load capacity /200.0/
r fuel consumption rate /1.0/
g inverse refueling rate /0.49/
v average Velocity /1.0/
